92 1 52 83 74 27 50 15 89 26 33 96 25 8 19 0 65 35 70 24 68 57 9 13 40 12 73 55 14 44 63 20 88 80 95 41 21 93 32 69 2 54 53 30 75 29 22 3 42 60 94 56 99 4 5 67 28 91 16 6 64 66 39 90 10 87 98 47 51 97 59 38 34 86 71 78 37 11 58 85 43 81 7 62 76 61 18 84 45 72 23 48 46 49 79 17 77 31 36 82 

